&control	
	calculation	=	'scf',
	restart_mode	=	'from_scratch',	
	prefix		=	'ZnO',
	pseudo_dir	=	'/home/terenliu/dft/pesudo'
/	
&system	
	ibrav		=2,	
	celldm(1)	=8.4794,	
	nat		=8,	
	ntyp		=2,	
	ecutwfc		=50,
	occupations='smearing'. smearing='gaussian',degauss=0.02
/	
&electrons
	diagonalization='david'
	conv_thr=1.0e-8	
	mixing_beta=	0.7	
/	
ATOMIC_SPECIES	
O	15.999		O.pbe-mt.UPF
Zn	65.380		Zn.pbe-mt_fhi.UPF
ATOMIC_POSITIONS	(alat)	
  O   0.2500000000000000   0.2500000000000000   0.2500000000000000
 Zn   0.0000000000000000   0.0000000000000000   0.0000000000000000
K_POINTS	(automatic)	
8	8	8	0	0	0
