&control
	calculation='nscf',
	prefix='ZnO',
	pseudo_dir=/home/terenliu/dft/pseudo
/
&system
	ibrav=2,
	celldm(1)=8.4794,
	nat=2,
	ntyp=2,
	nbnd=12,
	ecutwfc=50
/
&electrons
	mixing_beta=0.7
/
ATOMIC_SPECIES
O	15.999	O.pbe-mt.UPF
Zn	65.380	Zn.pbe-mt_fhi.UPF
ATOMIC_POSITIONS (alat)
  O   0.2500000000000000   0.2500000000000000   0.2500000000000000
 Zn   0.0000000000000000   0.0000000000000000   0.0000000000000000
K_POINTS tpiba
36
   0.500000000    0.500000000    0.500000000      1.000000000
   0.400000000    0.400000000    0.400000000      2.000000000
   0.300000000    0.300000000    0.300000000      3.000000000
   0.200000000    0.200000000    0.200000000      4.000000000
   0.100000000    0.100000000    0.100000000      5.000000000
   0.000000000    0.000000000    0.000000000      6.000000000
   0.000000000    0.000000000    0.100000000      7.000000000
   0.000000000    0.000000000    0.200000000      8.000000000
   0.000000000    0.000000000    0.300000000      9.000000000
   0.000000000    0.000000000    0.400000000     10.000000000
   0.000000000    0.000000000    0.500000000     11.000000000
   0.000000000    0.000000000    0.600000000     12.000000000
   0.000000000    0.000000000    0.700000000     13.000000000
   0.000000000    0.000000000    0.800000000     14.000000000
   0.000000000    0.000000000    0.900000000     15.000000000
   0.000000000    0.000000000    1.000000000     16.000000000
   0.000000000    0.100000000    1.000000000     17.000000000
   0.000000000    0.200000000    1.000000000     18.000000000
   0.000000000    0.300000000    1.000000000     19.000000000
   0.000000000    0.400000000    1.000000000     20.000000000
   0.000000000    0.500000000    1.000000000     21.000000000
   0.000000000    0.600000000    1.000000000     22.000000000
   0.000000000    0.700000000    1.000000000     23.000000000
   0.000000000    0.800000000    1.000000000     24.000000000
   0.000000000    0.900000000    1.000000000     25.000000000
   0.000000000    1.000000000    1.000000000     26.000000000
   0.000000000    0.900000000    0.900000000     27.000000000
   0.000000000    0.800000000    0.800000000     28.000000000
   0.000000000    0.700000000    0.700000000     29.000000000
   0.000000000    0.600000000    0.600000000     30.000000000
   0.000000000    0.500000000    0.500000000     31.000000000
   0.000000000    0.400000000    0.400000000     32.000000000
   0.000000000    0.300000000    0.300000000     33.000000000
   0.000000000    0.200000000    0.200000000     34.000000000
   0.000000000    0.100000000    0.100000000     35.000000000
   0.000000000    0.000000000    0.000000000     36.000000000