&control
	calculation='nscf',
	prefix='ZnO',
	pseudo_dir=/home/terenliu/dft/pseudo
/
&system
	ibrav=2,
	celldm(1)=8.4794,
	nat=2,
	ntyp=2,
	nbnd=12,
	ecutwfc=50
/
&electrons
	mixing_beta=0.7
/
ATOMIC_SPECIES
O	15.999	O.pbe-mt.UPF
Zn	65.380	Zn.pbe-mt_fhi.UPF
ATOMIC_POSITIONS (alat)
  O   0.2500000000000000   0.2500000000000000   0.2500000000000000
 Zn   0.0000000000000000   0.0000000000000000   0.0000000000000000
K_POINTS tpiba
3
   0.000000000    0.000000000    0.000000000      1.000000000
   1.000000000    0.000000000    0.000000000      2.000000000
   0.500000000    0.500000000    0.500000000      3.000000000